300
100 100
1 80 907
2 80 163
3 80 464
4 80 739
5 80 756
6 80 754
7 80 547
8 80 291
9 79 39
10 79 666
11 79 304
12 79 223
13 79 81
14 78 480
15 78 42
16 78 723
17 78 329
18 78 485
19 77 558
20 77 798
21 77 686
22 77 92
23 77 250
24 76 511
25 76 340
26 76 144
27 76 151
28 76 1000
29 76 262
30 76 30
31 75 683
32 75 236
33 75 911
34 74 641
35 74 841
36 74 861
37 74 323
38 74 722
39 74 615
40 73 932
41 73 268
42 73 684
43 73 657
44 72 705
45 72 540
46 72 313
47 72 936
48 72 166
49 72 872
50 72 588
51 72 970
52 71 859
53 71 432
54 71 38
55 71 429
56 71 302
57 71 341
58 70 337
59 70 139
60 70 413
61 69 851
62 69 270
63 69 678
64 69 649
65 69 385
66 68 824
67 68 386
68 68 773
69 67 916
70 67 930
71 67 920
72 67 634
73 67 664
74 66 18
75 66 623
76 66 495
77 66 950
78 65 272
79 65 283
80 65 516
81 65 79
82 65 217
83 64 594
84 64 500
85 64 825
86 64 90
87 63 464
88 63 87
89 63 918
90 63 975
91 63 361
92 62 525
93 62 201
94 62 557
95 62 234
96 62 749
97 61 981
98 61 997
99 60 303
100 60 437
101 60 959
102 59 364
103 59 451
104 59 942
105 59 18
106 59 731
107 59 393
108 59 672
109 59 766
110 58 864
111 58 40
112 58 525
113 58 379
114 58 22
115 58 384
116 57 552
117 57 971
118 57 77
119 57 629
120 57 818
121 56 863
122 56 503
123 56 142
124 56 360
125 56 11
126 55 273
127 55 134
128 55 999
129 54 719
130 54 326
131 54 178
132 54 190
133 53 813
134 53 59
135 53 353
136 52 475
137 52 286
138 52 432
139 52 373
140 52 715
141 52 804
142 51 314
143 51 419
144 51 709
145 51 437
146 51 193
147 50 752
148 50 937
149 50 476
150 50 510
151 50 653
152 50 505
153 49 622
154 49 52
155 49 431
156 49 69
157 49 307
158 48 856
159 48 721
160 48 135
161 48 940
162 48 9
163 48 982
164 48 391
165 48 98
166 48 338
167 48 699
168 48 951
169 48 737
170 47 469
171 47 440
172 47 634
173 47 704
174 47 951
175 46 833
176 46 157
177 46 985
178 46 979
179 46 782
180 45 774
181 45 371
182 45 540
183 45 609
184 45 525
185 45 12
186 45 696
187 45 633
188 45 836
189 45 676
190 44 802
191 44 646
192 43 409
193 43 204
194 43 984
195 43 211
196 43 706
197 43 584
198 43 100
199 43 724
200 42 935
201 42 183
202 41 583
203 41 950
204 41 840
205 41 283
206 41 415
207 41 981
208 40 118
209 40 97
210 40 330
211 40 959
212 40 5
213 40 147
214 40 974
215 40 52
216 40 760
217 40 257
218 40 414
219 39 799
220 39 786
221 39 501
222 39 463
223 39 770
224 39 864
225 39 39
226 38 322
227 38 175
228 38 920
229 37 676
230 36 141
231 36 865
232 36 178
233 36 20
234 35 489
235 35 159
236 35 757
237 35 197
238 35 17
239 34 888
240 34 37
241 34 733
242 34 370
243 34 433
244 34 149
245 34 766
246 33 585
247 33 367
248 32 296
249 32 537
250 31 744
251 31 177
252 30 303
253 30 679
254 30 225
255 29 26
256 29 355
257 29 74
258 29 771
259 28 729
260 28 212
261 28 104
262 28 560
263 27 679
264 27 922
265 27 293
266 27 30
267 27 186
268 27 610
269 26 426
270 26 326
271 26 965
272 25 735
273 25 459
274 25 385
275 25 426
276 25 960
277 25 214
278 25 796
279 24 445
280 24 449
281 24 849
282 24 614
283 24 189
284 23 56
285 23 810
286 22 955
287 22 276
288 22 208
289 22 282
290 22 747
291 22 68
292 21 642
293 21 823
294 21 695
295 20 528
296 20 40
297 20 295
298 20 89
299 20 784
300 20 903
